&bands
    prefix ='graphene',     
    outdir='../tmp',
    filband = 'grbands.dat',
    lsym=.true.
/


