 &control
    calculation='bands'
    prefix='graphene',
    pseudo_dir = '../pseudo',
    outdir='../tmp'
 /
 &system    
    ibrav=  0,
    a = 2.4674,
    b= 2.4674,
    c=20.000,
    cosab=-0.50000,
    nat = 4,
    ntyp = 1,
    ecutwfc = 40.0,
    ecutrho = 400.0 ,
    nbnd = 32,
    input_DFT = 'PBE' ,
    occupations = 'smearing' ,
    degauss = 0.001 ,
    smearing = 'marzari-vanderbilt' ,
 /
 &electrons
 /
ATOMIC_SPECIES
 C  12.011  C.pbe-rrkjus.UPF
CELL_PARAMETERS alat
1.002996671 -0.000000000 0.000000000
-0.501498335 0.868620597 0.000000000
0.000000000 0.000000000 1.000000
ATOMIC_POSITIONS crystal
C 0.000000000 0.000000000 5.000000000
C 0.000000000 1.424500000 5.000000000
C 0.000000000 0.000000000 8.520000000
C 0.000000000 1.424500000 8.520000000
K_POINTS crystal_b
4
0.0000000000 0.000000000 0.000000000 50 ! G
0.000000000 0.500000000 0.000000000 50 ! M
-0.333333333 0.666666667 0.000000000 50 ! K
0.0000000000 0.000000000 0.000000000 50 ! G

