&bands
    prefix ='graphene',     
    outdir='../tmp',
    filband = 'gra.bands.dat',
    lsym=.true.
/
