&CONTROL
calculation='bands'
title='graphene'
prefix='graphene'
verbosity='high'
iprint=1
tprnfor=.true.
wf_collect=.true.
disk_io='default'
pseudo_dir = '../pseudo/',        
outdir='../tmp',
tstress=.true.
/
&SYSTEM
ibrav = 12,
a = 2.4674,
b = 2.4674,
c= 20.000,
cosab=-0.500000,
nat = 4,
ntyp = 1,
ecutwfc = 40.0 ,
ecutrho = 400.0 ,
nbnd = 32 ,
input_DFT = 'PBE' ,
occupations = 'smearing' ,
degauss = 0.001 ,
smearing = 'marzari-vanderbilt' ,
/
&ELECTRONS
/
ATOMIC_SPECIES
C 12.011 C.pbe-n-rrkjus_psl.1.0.0.UPF
ATOMIC_POSITIONS angstrom
C 0.000000000 0.000000000 5.000000000
C 0.000000000 1.424500000 5.000000000
C 0.000000000 0.000000000 8.520000000
C 0.000000000 1.424500000 8.520000000
K_POINTS crystal_b
4
-0.333333333 0.666666667 0.000000000 50 ! K
0.0000000000 0.000000000 0.000000000 50 ! G
0.000000000 0.500000000 0.000000000 50 ! M
-0.333333333 0.666666667 0.000000000 50 ! K

