&bands
    prefix='graphene',
    outdir='../tmp',
    filband = 'grbands_1.dat',
    lsym=.true.
/


