 &control
    calculation = 'scf',
    verbosity = 'high'
    prefix = 'Fe_exc2'
    outdir = './tmp/'
    pseudo_dir = '../pseudo/'
 /
 &system
    ibrav =  2, 
    celldm(1) = 6, 
    nat =  1, 
    ntyp = 1,
    ecutwfc = 37,
    occupations = 'smearing',
    smearing = 'marzari-vanderbilt',
    degauss = 0.02
 /
 &electrons
    mixing_beta = 0.7
 /

ATOMIC_SPECIES
 Fe 55.845  Fe.pbesol-spn-rrkjus_psl.1.0.0.UPF

ATOMIC_POSITIONS (alat)
 Fe 0.0 0.0 0.0

K_POINTS (automatic)
  6 6 6 1 1 1
