&bands
    prefix='graphene',
    outdir='/home/shivani/Downloads/gr2/tmp',
    filband = 'grbands.dat',
    lsym=.true.
/


